Read MPS format model from file dat/rmp/4node_16384_20.mps
Reading time = 0.73 seconds
: 16444 rows, 81200 columns, 1938936 nonzeros
Gurobi Optimizer version 9.0.0 build v9.0.0rc2 (linux64)
Optimize a model with 16444 rows, 81200 columns and 1938936 nonzeros
Model fingerprint: 0xcb608158
Coefficient statistics:
  Matrix range     [4e-04, 2e+01]
  Objective range  [4e-03, 1e+04]
  Bounds range     [0e+00, 0e+00]
  RHS range        [1e+00, 8e+01]
Ordering time: 0.02s

Barrier statistics:
 AA' NZ     : 7.688e+05
 Factor NZ  : 9.573e+05 (roughly 50 MBytes of memory)
 Factor Ops : 6.004e+07 (less than 1 second per iteration)
 Threads    : 1

                  Objective                Residual
Iter       Primal          Dual         Primal    Dual     Compl     Time
   0   3.02459270e+07  0.00000000e+00  6.52e+04 2.40e+02  6.55e+04     1s
   1   1.02136657e+06 -6.77858328e+07  2.05e+03 1.77e+03  3.26e+03     1s
   2   6.19383712e+05 -6.52565074e+07  9.96e+02 1.74e+03  2.07e+03     1s
   3   2.77376117e+05 -5.09023665e+07  3.25e+02 1.01e+03  1.09e+03     1s
   4   1.55652333e+05 -2.19197364e+07  1.71e+01 3.16e+02  3.59e+02     1s
   5   1.39031561e+05 -5.64576807e+05  1.73e-09 8.52e+00  1.09e+01     1s
   6   9.30765238e+04 -1.64805677e+05  1.30e-09 2.43e+00  3.79e+00     1s
   7   4.13450760e+04 -1.11281774e+05  6.91e-10 1.61e+00  2.27e+00     1s
   8   1.57058644e+04 -4.02167454e+04  2.30e-07 5.84e-01  8.25e-01     2s
   9   4.56074518e+03 -1.12949922e+04  6.40e-07 1.22e-01  2.22e-01     2s
  10   5.80750311e+02 -6.35820633e+03  4.28e-07 5.22e-02  9.66e-02     2s
  11   4.81260844e+02 -5.34364771e+03  3.70e-07 3.91e-02  8.01e-02     2s
  12   3.63690400e+02 -5.02966479e+03  8.77e-07 3.60e-02  7.41e-02     2s
  13  -4.65428258e+01 -4.28443005e+03  1.75e-05 2.88e-02  5.83e-02     2s
  14   5.58477176e+02 -1.51278021e+03  2.91e-06 5.38e-03  2.67e-02     2s
  15  -3.07711170e+02 -5.97789066e+02  3.08e-06 4.91e-04  3.68e-03     3s
  16  -3.52556984e+02 -4.77311039e+02  1.83e-06 1.60e-05  1.54e-03     3s
  17  -4.19850593e+02 -4.64056070e+02  3.52e-06 1.03e-05  5.47e-04     3s
  18  -4.25034194e+02 -4.57810629e+02  3.03e-06 6.80e-06  4.05e-04     3s
  19  -4.25304158e+02 -4.55551495e+02  2.97e-06 5.88e-06  3.74e-04     3s
  20  -4.29491355e+02 -4.50726385e+02  2.73e-06 3.51e-06  2.62e-04     3s
  21  -4.35488752e+02 -4.48053812e+02  2.14e-06 2.17e-06  1.55e-04     3s
  22  -4.41927441e+02 -4.48116838e+02  1.70e-06 4.67e-07  7.63e-05     3s
  23  -4.43580162e+02 -4.47703579e+02  2.30e-06 2.83e-07  5.08e-05     4s
  24  -4.45640310e+02 -4.47141483e+02  7.70e-07 9.97e-08  1.85e-05     4s
  25  -4.46298119e+02 -4.46886621e+02  5.88e-07 5.05e-09  7.25e-06     4s
  26  -4.46298169e+02 -4.46870891e+02  1.20e-06 2.95e-09  7.05e-06     4s
  27  -4.46298203e+02 -4.46870678e+02  1.36e-06 1.65e-09  7.05e-06     5s
  28  -4.46298233e+02 -4.46870585e+02  2.52e-06 1.60e-09  7.05e-06     5s
  29  -4.46298211e+02 -4.46865638e+02  1.28e-06 1.59e-09  6.99e-06     5s
  30  -4.46298228e+02 -4.46853803e+02  5.64e-06 2.57e-09  6.84e-06     5s
  31  -4.46298291e+02 -4.46853127e+02  4.27e-06 8.50e-10  6.83e-06     5s
  32  -4.46298504e+02 -4.46852052e+02  2.59e-06 1.25e-09  6.82e-06     6s
  33  -4.46299003e+02 -4.46849703e+02  3.58e-06 5.11e-10  6.78e-06     6s
  34  -4.46299276e+02 -4.46848877e+02  4.47e-06 4.27e-10  6.77e-06     6s
  35  -4.46299664e+02 -4.46844974e+02  1.00e-05 5.78e-10  6.72e-06     6s
  36  -4.46299854e+02 -4.46843699e+02  9.77e-06 5.07e-10  6.70e-06     6s
  37  -4.46300396e+02 -4.46843578e+02  8.27e-06 2.28e-10  6.69e-06     7s
  38  -4.46301650e+02 -4.46842029e+02  1.52e-05 6.97e-11  6.66e-06     7s
  39  -4.46302685e+02 -4.46841534e+02  1.88e-05 5.17e-11  6.64e-06     7s
  40  -4.46304280e+02 -4.46840989e+02  2.52e-05 4.70e-11  6.61e-06     7s
  41  -4.46306934e+02 -4.46842486e+02  3.31e-05 3.40e-11  6.60e-06     7s
  42  -4.46308147e+02 -4.46840300e+02  4.55e-05 2.81e-11  6.55e-06     7s
  43  -4.46309733e+02 -4.46839845e+02  4.96e-05 2.62e-11  6.53e-06     8s
  44  -4.46313706e+02 -4.46839535e+02  7.19e-05 2.50e-11  6.48e-06     8s
  45  -4.46314644e+02 -4.46839532e+02  1.81e-04 2.42e-11  6.47e-06     8s
  46  -4.46325833e+02 -4.46839447e+02  2.92e-04 2.65e-11  6.34e-06     8s
  47  -4.46345755e+02 -4.46837842e+02  3.67e-04 1.46e-11  6.07e-06     8s
  48  -4.46374564e+02 -4.46837778e+02  4.47e-04 6.25e-11  5.73e-06     8s
  49  -4.46416885e+02 -4.46837203e+02  5.91e-04 2.83e-11  5.22e-06     9s
  50  -4.46462993e+02 -4.46838551e+02  5.48e-04 1.46e-11  4.70e-06     9s
  51  -4.46524742e+02 -4.46836769e+02  9.00e-04 5.29e-11  3.96e-06     9s
  52  -4.46552815e+02 -4.46836164e+02  1.47e-03 5.14e-11  3.93e-06     9s
  53  -4.46715044e+02 -4.46834368e+02  2.92e-03 1.46e-11  1.89e-06     9s
  54  -4.46734816e+02 -4.46833639e+02  2.88e-03 1.46e-11  1.67e-06     9s
  55  -4.46759267e+02 -4.46833325e+02  2.69e-03 1.46e-11  1.40e-06    10s
  56  -4.46793970e+02 -4.46833133e+02  2.95e-03 1.46e-11  7.20e-07    10s
  57  -4.46794440e+02 -4.46833097e+02  2.92e-03 1.46e-11  7.10e-07    10s
  58  -4.46794427e+02 -4.46832977e+02  2.84e-03 1.46e-11  6.68e-07    10s
  59  -4.46797623e+02 -4.46832772e+02  2.86e-03 1.46e-11  6.38e-07    10s
  60  -4.46809026e+02 -4.46832956e+02  2.91e-03 2.91e-11  5.04e-07    10s
  61  -4.46820785e+02 -4.46832825e+02  2.20e-03 1.46e-11  3.00e-07    10s
  62  -4.46817900e+02 -4.46832846e+02  2.23e-03 1.46e-11  2.99e-07    11s
  63  -4.46792553e+02 -4.46832887e+02  1.80e-03 1.46e-11  2.78e-07    11s
  64  -4.46789537e+02 -4.46832868e+02  1.87e-03 1.46e-11  2.63e-07    11s
  65  -4.46795783e+02 -4.46832855e+02  1.62e-03 1.46e-11  2.16e-07    11s
  66  -4.46796485e+02 -4.46832071e+02  1.70e-03 1.46e-11  1.67e-07    11s
  67  -4.46795151e+02 -4.46831809e+02  1.91e-03 1.46e-11  1.54e-07    12s
  68  -4.46815524e+02 -4.46831704e+02  1.65e-03 1.46e-11  8.08e-08    12s
  69  -4.46815600e+02 -4.46831747e+02  1.65e-03 1.46e-11  8.08e-08    12s
  70  -4.46846786e+02 -4.46831776e+02  1.90e-03 1.46e-11  5.34e-08    12s
  71  -4.46843285e+02 -4.46832061e+02  1.85e-03 2.91e-11  4.81e-08    12s
  72  -4.46852245e+02 -4.46831869e+02  1.53e-03 2.91e-11  4.43e-08    12s
  73  -4.46846014e+02 -4.46831845e+02  1.72e-03 2.91e-11  3.67e-08    13s
  74  -4.46835489e+02 -4.46831841e+02  2.71e-03 2.91e-11  3.63e-08    13s
  75  -4.46824267e+02 -4.46831751e+02  1.52e-03 2.91e-11  1.35e-08    13s
  76  -4.46821279e+02 -4.46831673e+02  1.89e-03 1.46e-11  1.30e-08    13s
  77  -4.46825728e+02 -4.46831735e+02  1.43e-03 1.46e-11  1.01e-08    13s
  78  -4.46830139e+02 -4.46831644e+02  1.34e-03 1.46e-11  9.86e-09    14s
  79  -4.46813569e+02 -4.46831639e+02  1.57e-03 1.46e-11  7.23e-09    14s
  80  -4.46800948e+02 -4.46831471e+02  1.66e-03 1.46e-11  6.16e-09    14s
  81  -4.46820646e+02 -4.46831438e+02  1.52e-03 1.46e-11  6.01e-09    14s
  82  -4.46851494e+02 -4.46831499e+02  2.32e-03 2.91e-11  3.25e-09    14s
  83  -4.46847847e+02 -4.46831492e+02  1.85e-03 2.91e-11  2.55e-09    15s
  84  -4.46847543e+02 -4.46831544e+02  1.82e-03 1.46e-11  2.49e-09    15s
  85  -4.46845955e+02 -4.46831582e+02  1.65e-03 1.46e-11  2.38e-09    15s
  86  -4.46846651e+02 -4.46831764e+02  1.50e-03 1.46e-11  1.98e-09    16s
  87  -4.46837211e+02 -4.46831630e+02  1.38e-03 1.46e-11  1.67e-09    16s
  88  -4.46841686e+02 -4.46831667e+02  1.50e-03 1.46e-11  1.69e-09    16s
  89  -4.46846880e+02 -4.46831550e+02  1.45e-03 1.46e-11  1.54e-09    17s
  90  -4.46857420e+02 -4.46831553e+02  2.40e-03 1.46e-11  1.47e-09    17s
  91  -4.46855610e+02 -4.46831556e+02  2.28e-03 1.46e-11  1.38e-09    17s
  92  -4.46853035e+02 -4.46831578e+02  2.05e-03 1.46e-11  1.34e-09    17s
  93  -4.46854227e+02 -4.46831395e+02  2.05e-03 1.46e-11  1.35e-09    17s
  94  -4.46853388e+02 -4.46831679e+02  1.94e-03 1.46e-11  1.30e-09    17s
  95  -4.46849826e+02 -4.46831746e+02  1.70e-03 1.46e-11  1.26e-09    18s
  96  -4.46819894e+02 -4.46831856e+02  1.59e-03 1.46e-11  8.14e-10    18s
  97  -4.46821460e+02 -4.46831891e+02  4.65e-03 1.46e-11  9.03e-10    18s
  98  -4.46817228e+02 -4.46832144e+02  4.39e-03 1.82e-12  6.31e-10    18s
  99  -4.46816989e+02 -4.46832263e+02  4.35e-03 1.46e-11  5.59e-10    19s
 100  -4.46814497e+02 -4.46832330e+02  3.71e-03 1.46e-11  4.48e-10    19s
 101  -4.46825857e+02 -4.46832367e+02  2.42e-03 1.46e-11  3.47e-10    19s
 102  -4.46826309e+02 -4.46832365e+02  2.36e-03 1.46e-11  3.39e-10    19s
 103  -4.46824042e+02 -4.46832327e+02  2.28e-03 1.46e-11  3.50e-10    19s
 104  -4.46824377e+02 -4.46832191e+02  2.24e-03 1.46e-11  3.21e-10    20s
 105  -4.46825264e+02 -4.46832335e+02  2.13e-03 1.46e-11  2.91e-10    20s
 106  -4.46825787e+02 -4.46832236e+02  2.12e-03 1.46e-11  2.96e-10    20s
 107  -4.46828569e+02 -4.46832003e+02  1.85e-03 1.46e-11  2.85e-10    20s
 108  -4.46836119e+02 -4.46832505e+02  1.52e-03 1.46e-11  9.31e-10    21s

Barrier performed 108 iterations in 20.77 seconds
Sub-optimal termination - objective -4.46298119e+02

Solve time: 20.77098465
Barrier iterations: 108
